;; lemma to synthesize - simplified grammar
(synth-fun lemma ((x Int) (y Int) (nil Int)) Bool

           ((Start Bool) (BLeaf Bool) (S (Set Int)) (Loc Int))

           ((Start Bool
                  ((=> BLeaf BLeaf)))
           (BLeaf Bool
                  ((member Loc S)
                   (lst Loc)
                   (lseg Loc Loc)))
            (S (Set Int)
                  ((hlst Loc)))
            (Loc Int (x y nil)))
)

(synth-fun rswitch () Int

           ((Start Int))
           ((Start Int (0 1)))

)
